NAME: random_60_3
TYPE: TSP
COMMENT: random_60_3
DIMENSION: 60
EDGE_WEIGHT_TYPE: EUC_2D
NODE_COORD_SECTION
1 483 80
2 108 49
3 135 176
4 284 208
5 247 149
6 433 6
7 465 205
8 291 18
9 343 406
10 409 32
11 474 46
12 132 124
13 294 336
14 451 244
15 146 446
16 82 293
17 36 315
18 146 452
19 196 113
20 122 119
21 370 61
22 25 114
23 120 416
24 338 476
25 377 84
26 149 45
27 28 256
28 418 294
29 462 438
30 334 134
31 277 272
32 369 403
33 6 446
34 343 170
35 430 219
36 60 255
37 283 45
38 324 115
39 365 321
40 168 326
41 159 470
42 444 312
43 82 102
44 129 482
45 39 410
46 383 43
47 220 99
48 383 122
49 105 20
50 11 431
51 194 84
52 164 460
53 332 112
54 323 351
55 320 36
56 207 92
57 201 359
58 439 324
59 428 172
60 461 9
